r=3; %radius of tesselated grid
n=36; %how many numbers
snake = array2d(1..n,1..3,[
-1, 3, -2, %xyz of 1
0, 2, -2, %xyz of 2
0, 3, -3, %xyz of 3
1, 2, -3, %xyz of 4
2, 1, -3, %xyz of 5
2, 0, -2, %xyz of 6
3, 0, -3, %xyz of 7
3, -1, -2, %xyz of 8
2, -1, -1, %xyz of 9
2, -2, 0, %xyz of 10
3, -2, -1, %xyz of 11
3, -3, 0, %xyz of 12
2, -3, 1, %xyz of 13
1, -2, 1, %xyz of 14
0, -1, 1, %xyz of 15
1, -1, 0, %xyz of 16
1, 0, -1, %xyz of 17
1, 1, -2, %xyz of 18
0, 1, -1, %xyz of 19
-1, 1, 0, %xyz of 20
-1, 2, -1, %xyz of 21
-2, 3, -1, %xyz of 22
-2, 2, 0, %xyz of 23
-3, 3, 0, %xyz of 24
-3, 2, 1, %xyz of 25
-3, 1, 2, %xyz of 26
-2, 0, 2, %xyz of 27
-2, 1, 1, %xyz of 28
-1, 0, 1, %xyz of 29
-1, -1, 2, %xyz of 30
0, -2, 2, %xyz of 31
1, -3, 2, %xyz of 32
0, -3, 3, %xyz of 33
-1, -2, 3, %xyz of 34
-2, -1, 3, %xyz of 35
-3, 0, 3 %xyz of 36
]);

t=4;
tunnels = array3d(1..t,1..2,1..3,[
    0,-1,1,
    1,-2,1,
    
    -1,1,0,
    0,1,-1,
    
    0,3,-3,
    1,2,-3,
    
    2,1,-3,
    2,0,-2

]);